5 5
2 99 0 40 3 54 1 2 4 50
4 41 0 45 2 9 3 62 1 86
4 47 3 5 1 76 2 1 0 44
1 22 0 38 4 19 3 80 2 31
2 67 3 87 4 42 1 82 0 26
-1
0 3 5
0 1 2 3 5
0 1 2 4 5
0 3 5
0 1 2 4 5
-2
207 377
44 115 117 284
51 55 131 174
117 193
100 199 405 456

402 8
16 6 1 24 14
15 12 23 3 9
20 0 7 13 19
11 21 8 2 18
10 5 17 22 4
